COLUMNS

passenger_count
pickup_ID
dropoff_ID
request_time_sec
pickup_district
dropoff_district
LDuals
IDuals
vehicle_ID
pick_position
drop_position

REQUESTS_INFO
1      396       435       32117     119       52        110       110       45        1         3         
3      818       582       32102     290       189       216       216       84        1         3         
4      545       431       32106     52        52        203       203       135       1         2         
3      314       268       32127     119       299       183       183       150       1         3         
1      621       892       32127     280       291       101       101       171       1         2         
1      369       553       32086     52        189       177       177       194       1         2         
1      413       232       32114     52        266       106       106       195       1         3         
1      906       772       32044     290       290       177       177       201       1         3         
3      826       597       32099     291       131       152       152       244       1         2         
3      311       767       32093     87        290       197       197       298       1         2         
1      351       280       32114     52        277       191       191       315       1         3         
1      352       583       32071     119       189       222       222       408       1         2         
1      1209      1168      32102     192       291       147       147       473       1         3         
1      1190      738       32104     192       189       162       162       473       2         4         
1      969       696       32078     290       189       164       164       516       1         3         
1      482       157       32107     189       54        112       112       536       1         2         
1      1023      782       32020     291       291       268       268       561       1         4         
2      835       849       32116     290       291       131       131       565       1         2         
3      791       836       32093     290       290       169       169       618       1         2         
1      947       651       32116     290       189       132       132       703       1         4         
1      399       624       32106     168       189       160       160       746       1         2         
3      818       582       32102     290       189       216       216       748       1         3         
1      818       176       32068     290       174       250       250       751       1         3         
1      802       1045      32100     291       291       136       136       783       1         2         
3      839       247       32063     290       266       243       243       807       1         2         
3      813       676       32044     290       189       228       228       809       1         2         
2      814       598       32100     290       189       165       165       840       1         3         
1      1000      781       32113     291       291       172       172       845       1         2         
2      772       946       32080     290       290       199       199       858       1         2         
1      275       35        32077     87        98        178       178       878       1         4         
1      1024      1225      32088     291       192       197       197       898       1         2         
3      906       926       32108     290       290       172       172       900       1         2         
1      816       557       32072     290       189       156       156       913       1         5         
1      848       387       32098     291       299       201       201       991       1         2         
1      815       582       32044     290       189       253       253       1025      1         2         
1      1014      903       32124     84        290       144       144       1035      1         2         
2      1002      694       32031     291       189       214       214       1037      1         3         
1      325       393       32109     299       52        159       159       1039      1         3         
1      1066      914       32009     291       291       287       287       1049      1         2         
2      991       459       32015     290       189       238       238       1093      1         2         
1      1046      651       32073     291       189       231       231       1125      1         3         
2      571       475       32087     52        52        143       143       1135      1         2         
2      906       926       32108     290       290       172       172       1156      1         2         
3      349       671       32065     127       280       230       230       1176      1         2         
2      838       674       32119     290       189       170       170       1282      1         3         
1      1025      676       31970     291       189       369       369       1300      1         2         
3      1168      1090      32129     291       291       138       138       1309      1         3         
2      925       983       32113     290       291       182       182       1318      1         3         
1      1066      1151      32126     291       291       170       170       1358      1         3         
3      137       651       32110     286       189       109       109       1388      1         2         
1      454       309       32078     52        127       150       150       1391      1         2         
1      1044      1207      32065     291       192       0         0         1402      1         2         
1      481       273       32088     189       206       169       169       1487      1         3         
2      663       531       32056     131       189       199       199       1503      1         2         
1      938       593       32114     291       52        165       165       1556      1         2         
1      31        387       32118     9         299       122       122       1761      1         2         
1      352       532       32119     119       199       174       174       1762      1         3         
1      511       734       32107     199       131       111       111       1797      1         2         
2      328       452       32047     299       52        265       265       1818      1         2         
2      817       377       32111     290       168       179       179       1838      1         3         
1      1003      670       32073     291       280       239       239       1847      1         2         
1      330       377       32072     127       168       256       256       1915      1         2         
1      1086      936       31999     291       291       296       296       1921      1         2         
1      945       581       32081     50        189       219       219       1951      1         2         
1      1036      653       32130     84        189       0         0         0         0         0         
3      474       435       32130     52        52        0         0         0         0         0         
2      474       435       32130     52        52        0         0         0         0         0         
2      499       461       32130     52        189       0         0         0         0         0         
1      411       544       32130     52        52        0         0         0         0         0         
1      199       172       32131     178       286       0         0         0         0         0         
1      253       829       32131     206       50        0         0         0         0         0         
1      837       63        32131     290       98        0         0         0         0         0         
1      604       882       32131     189       290       0         0         0         0         0         
1      621       718       32131     280       189       0         0         0         0         0         
1      337       268       32132     277       299       0         0         0         0         0         
1      578       116       32132     189       9         0         0         0         0         0         
1      924       959       32132     290       291       0         0         0         0         0         
1      556       527       32132     199       52        0         0         0         0         0         
1      603       693       32132     189       280       0         0         0         0         0         
2      836       876       32132     290       50        0         0         0         0         0         
3      836       876       32132     290       50        0         0         0         0         0         
2      387       578       32132     299       189       0         0         0         0         0         
3      387       578       32132     299       189       0         0         0         0         0         
2      608       698       32132     189       189       0         0         0         0         0         
3      608       698       32132     189       189       0         0         0         0         0         
1      605       727       32133     189       290       0         0         0         0         0         
2      983       914       32133     291       291       0         0         0         0         0         
1      509       189       32133     199       286       0         0         0         0         0         
2      608       603       32134     189       189       0         0         0         0         0         
3      608       603       32134     189       189       0         0         0         0         0         
1      483       671       32135     189       280       0         0         0         0         0         
1      121       47        32136     57        98        0         0         0         0         0         
1      327       387       32136     299       299       0         0         0         0         0         
1      439       531       32136     189       189       0         0         0         0         0         
2      559       371       32136     189       52        0         0         0         0         0         
3      559       371       32136     189       52        0         0         0         0         0         
1      1044      408       32137     291       299       0         0         0         0         0         
1      557       192       32137     189       266       0         0         0         0         0         
1      499       390       32137     52        52        0         0         0         0         0         
3      905       1406      32137     290       129       0         0         0         0         0         
3      905       1406      32137     290       129       0         0         0         0         0         
3      632       439       32137     189       189       0         0         0         0         0         
3      632       439       32137     189       189       0         0         0         0         0         
1      1107      1263      32137     291       192       0         0         0         0         0         
3      936       902       32138     291       50        0         0         0         0         0         
1      794       606       32138     290       189       0         0         0         0         0         
1      533       417       32138     199       100       0         0         0         0         0         
1      663       435       32138     131       52        0         0         0         0         0         
1      895       697       32138     291       189       0         0         0         0         0         
3      356       236       32138     119       87        0         0         0         0         0         
2      184       748       32138     87        290       0         0         0         0         0         
2      936       902       32138     291       50        0         0         0         0         0         
2      65        551       32138     98        189       0         0         0         0         0         
3      914       1188      32138     291       192       0         0         0         0         0         
3      914       1188      32138     291       192       0         0         0         0         0         
1      741       670       32139     50        280       0         0         0         0         0         
1      947       727       32139     290       290       0         0         0         0         0         
3      839       770       32139     290       290       0         0         0         0         0         
1      554       507       32139     189       189       0         0         0         0         0         
2      839       770       32139     290       290       0         0         0         0         0         
2      940       738       32139     291       189       0         0         0         0         0         
1      474       603       32139     52        189       0         0         0         0         0         
1      452       737       32139     52        189       0         0         0         0         0         
2      252       314       32140     206       119       0         0         0         0         0         
2      793       951       32140     290       290       0         0         0         0         0         
2      440       393       32140     168       52        0         0         0         0         0         
1      484       417       32140     189       100       0         0         0         0         0         
1      702       82        32140     290       98        0         0         0         0         0         
1      330       718       32140     127       189       0         0         0         0         0         
4      1022      307       32140     291       127       0         0         0         0         0         
3      793       951       32140     290       290       0         0         0         0         0         
2      937       647       32140     291       280       0         0         0         0         0         
3      369       483       32140     52        189       0         0         0         0         0         
3      369       483       32140     52        189       0         0         0         0         0         
1      357       726       32140     277       290       0         0         0         0         0         
2      626       893       32141     189       291       0         0         0         0         0         
1      462       696       32141     189       189       0         0         0         0         0         
1      476       208       32141     52        286       0         0         0         0         0         
1      1189      917       32141     192       291       0         0         0         0         0         
1      229       370       32142     266       52        0         0         0         0         0         
1      552       415       32142     189       100       0         0         0         0         0         
1      1207      1337      32142     192       129       0         0         0         0         0         
1      758       694       32142     131       189       0         0         0         0         0         
1      441       603       32143     168       189       0         0         0         0         0         
1      115       573       32143     9         189       0         0         0         0         0         
1      669       605       32144     280       189       0         0         0         0         0         
1      671       693       32144     280       280       0         0         0         0         0         
1      863       378       32144     290       168       0         0         0         0         0         
1      981       78        32144     291       9         0         0         0         0         0         
2      1153      575       32144     50        189       0         0         0         0         0         
1      1066      915       32145     291       291       0         0         0         0         0         
1      527       647       32145     52        280       0         0         0         0         0         
1      1088      626       32145     291       189       0         0         0         0         0         
1      727       371       32145     290       52        0         0         0         0         0         
1      642       604       32146     131       189       0         0         0         0         0         
1      308       136       32146     127       286       0         0         0         0         0         
1      826       670       32146     291       280       0         0         0         0         0         
1      627       719       32146     189       189       0         0         0         0         0         
1      678       629       32146     290       189       0         0         0         0         0         
1      792       577       32146     290       189       0         0         0         0         0         
1      330       555       32146     127       199       0         0         0         0         0         
1      646       760       32146     280       291       0         0         0         0         0         
1      1076      1167      32146     84        291       0         0         0         0         0         
1      486       335       32147     199       119       0         0         0         0         0         
2      369       693       32147     52        280       0         0         0         0         0         
1      371       293       32147     52        87        0         0         0         0         0         
1      621       603       32147     280       189       0         0         0         0         0         
3      629       747       32148     189       290       0         0         0         0         0         
2      835       960       32148     290       291       0         0         0         0         0         
1      970       742       32148     290       290       0         0         0         0         0         
1      718       578       32148     189       189       0         0         0         0         0         
3      629       747       32148     189       290       0         0         0         0         0         
1      645       556       32148     280       199       0         0         0         0         0         
2      499       437       32148     52        100       0         0         0         0         0         
3      499       437       32148     52        100       0         0         0         0         0         
1      483       394       32149     189       100       0         0         0         0         0         
2      739       364       32149     189       299       0         0         0         0         0         
3      739       364       32149     189       299       0         0         0         0         0         
1      1207      1193      32149     192       129       0         0         0         0         0         
1      720       1031      32149     290       50        0         0         0         0         0         
1      923       649       32149     290       189       0         0         0         0         0         
1      251       156       32149     127       286       0         0         0         0         0         
2      884       770       32150     290       290       0         0         0         0         0         
1      253       647       32150     206       280       0         0         0         0         0         
1      59        232       32150     999       266       0         0         0         0         0         
3      488       421       32150     199       168       0         0         0         0         0         
3      488       421       32150     199       168       0         0         0         0         0         
1      679       748       32151     290       290       0         0         0         0         0         
1      485       466       32151     189       199       0         0         0         0         0         
1      527       415       32151     52        100       0         0         0         0         0         
1      556       573       32151     199       189       0         0         0         0         0         
1      462       679       32151     189       290       0         0         0         0         0         
1      179       67        32151     178       287       0         0         0         0         0         
2      1131      789       32152     291       290       0         0         0         0         0         
1      478       828       32152     52        291       0         0         0         0         0         
1      458       758       32152     52        131       0         0         0         0         0         
1      829       914       32152     50        291       0         0         0         0         0         
1      419       545       32152     168       52        0         0         0         0         0         
1      349       481       32152     127       189       0         0         0         0         0         
1      348       438       32152     299       100       0         0         0         0         0         
1      702       721       32152     290       290       0         0         0         0         0         
3      1131      789       32152     291       290       0         0         0         0         0         
1      970       902       32153     290       50        0         0         0         0         0         
3      881       724       32153     290       290       0         0         0         0         0         
1      838       788       32153     290       290       0         0         0         0         0         
3      881       724       32153     290       290       0         0         0         0         0         
1      1091      1088      32154     291       291       0         0         0         0         0         
1      527       650       32154     52        189       0         0         0         0         0         
1      863       629       32154     290       189       0         0         0         0         0         
1      170       436       32154     286       100       0         0         0         0         0         
1      333       575       32154     119       189       0         0         0         0         0         
1      414       646       32154     100       280       0         0         0         0         0         
3      398       332       32154     168       87        0         0         0         0         0         
3      398       332       32154     168       87        0         0         0         0         0         
1      712       737       32154     131       189       0         0         0         0         0         
1      269       484       32155     127       189       0         0         0         0         0         
1      573       601       32155     189       189       0         0         0         0         0         
1      675       436       32155     189       100       0         0         0         0         0         
1      817       606       32155     290       189       0         0         0         0         0         
1      31        35        32155     9         98        0         0         0         0         0         
1      873       395       32155     291       100       0         0         0         0         0         
1      527       372       32156     52        119       0         0         0         0         0         
1      789       904       32156     290       290       0         0         0         0         0         
1      698       602       32156     189       189       0         0         0         0         0         
1      913       650       32157     291       189       0         0         0         0         0         
2      44        21        32157     98        98        0         0         0         0         0         
1      292       676       32157     87        189       0         0         0         0         0         
1      1207      1053      32157     192       84        0         0         0         0         0         
1      234       353       32157     87        119       0         0         0         0         0         
1      556       464       32157     199       168       0         0         0         0         0         
1      767       721       32158     290       290       0         0         0         0         0         
1      434       463       32158     52        168       0         0         0         0         0         
3      462       421       32158     189       168       0         0         0         0         0         
1      712       439       32159     131       189       0         0         0         0         0         
1      252       267       32159     206       266       0         0         0         0         0         
1      295       484       32159     87        189       0         0         0         0         0         
1      134       526       32159     9         52        0         0         0         0         0         
2      789       904       32159     290       290       0         0         0         0         0         
4      418       527       32159     168       52        0         0         0         0         0         
1      371       651       32159     52        189       0         0         0         0         0         
1      526       545       32159     52        52        0         0         0         0         0         
3      415       375       32159     100       119       0         0         0         0         0         
